15	3	2
4776	4776	4776	
616	798	823	
311	400	564	
42	202	403	
17	840	1275	
758	342	479	
369	61	80	
484	66	124	
883	748	1121	
931	561	759	
799	329	445	
780	724	1039	
560	306	348	
998	574	575	
114	305	584	
603	113	135	
